64669696028393902525010,3,1,2,04,2,1,2,011,5,1,2,010,10,1,2,08,4,1,2,08,1,1,2,06,15,1,2,011,11,1,2,011,4,1,2,013,12,1,2,03,14,1,2,011,15,1,2,06,8,1,2,012,7,1,2,03,2,1,2,01,14,1,2,015,11,1,2,012,8,1,2,08,7,1,2,015,7,1,2,03,6,1,2,05,2,1,2,010,14,1,2,09,11,1,2,014,8,1,2,014,14,1,2,09,13,1,2,05,8,1,2,01,10,1,2,06,5,1,2,013,5,1,2,02,15,1,2,06,13,1,2,014,15,1,2,04,14,1,2,014,12,1,2,015,8,1,2,07,9,1,2,010,12,1,2,06,15,1,2,03,5,1,2,014,6,1,2,07,5,1,2,011,5,1,2,07,12,1,2,010,2,1,2,01,3,1,2,04,6,1,2,012,11,1,2,04,10,1,2,0